NAME : portcgen-15-22
COMMENT : portcgen N=15, seed=22
TYPE : TSP
DIMENSION : 15
EDGE_WEIGHT_TYPE : EUC_2D
NODE_COORD_SECTION
1 23352 -198418
2 -189508 -28301
3 88564 450420
4 -56302 -90625
5 14147 415275
6 -180393 59095
7 167816 -208873
8 153351 -133180
9 -137021 532894
10 411675 20891
11 -194615 424822
12 -77668 -278384
13 420116 211024
14 -275963 -139096
15 164847 150094
